1 8 12
 2 63 77
 3 19 10
 4 39 49
 5 86 5
 6 96 64
 7 34 25
 8 44 15
 9 58 90
 10 49 21
 11 43 57
 12 52 28
 13 47 22
 14 40 50
 15 44 34
 16 0 70
 17 56 30
 18 60 98
 19 103 0
 20 105 70
 21 45 25
 22 64 82
 23 44 50
 24 44 53
 25 59 27
 26 54 16
 27 92 11
 28 46 22
 29 98 74
 30 103 72
 31 44 29
 32 39 30
 33 97 71
 34 49 22
 35 22 13
 36 44 58
 37 50 25
 38 46 21
 39 44 50
 40 51 66
 41 28 12
 42 50 59
 43 61 92
 44 52 25
 45 21 16
 46 51 61
 47 46 51
 48 91 13
 49 25 13
 50 53 22
